000 000 000 000 000 000 -99 000 -99 -99 -99 -99 -99 000 000 -99 -99 -99 000 000 -99 -99 -99 000 000 -99 000 -99 -99 -99 000
000 000 000 000 000 000 000 000 000 -99 -99 -99 -99 -99 000 -99 -99 -99 -99 000 000 -99 000 -99 000 -99 000 -99 -99 -99 000
-99 000 000 000 000 000 000 000 -99 -99 -99 -99 -99 -99 000 000 -99 -99 -99 -99 000 -99 000 000 -99 000 000 -99 -99 -99 000
000 000 000 000 000 000 000 000 -99 000 -99 000 000 -99 000 000 -99 -99 -99 -99 000 000 000 000 -99 000 000 -99 -99 -99 -99
000 000 000 000 000 000 000 000 000 000 000 000 000 000 000 000 -99 -99 -99 -99 000 000 000 -99 000 000 000 000 -99 -99 -99
000 000 000 000 000 000 000 000 000 000 000 -99 000 000 -99 000 000 -99 -99 -99 000 000 000 000 000 000 000 -99 -99 -99 -99
000 000 000 000 000 -99 000 -99 000 000 000 -99 000 000 -99 -99 000 -99 -99 -99 000 000 000 000 000 000 -99 -99 -99 -99 -99
000 000 000 000 000 -99 000 -99 000 000 000 -99 000 000 -99 -99 000 000 000 -99 000 000 -99 000 000 000 -99 -99 -99 000 000
000 000 000 000 -99 -99 -99 -99 000 000 000 000 -99 -99 -99 000 000 000 000 -99 000 -99 000 000 000 000 -99 -99 -99 000 000
000 000 000 000 -99 -99 -99 -99 000 000 000 000 -99 -99 000 000 -99 000 -99 -99 -99 000 -99 000 000 000 000 000 -99 000 000
000 000 000 000 000 000 000 000 -99 000 000 000 -99 -99 -99 000 000 000 -99 -99 -99 000 -99 000 000 000 000 000 000 000 000
000 -99 000 000 000 000 000 000 000 000 000 000 -99 -99 -99 000 000 000 -99 -99 -99 -99 -99 000 000 000 000 000 000 000 000
-99 000 000 000 000 000 000 000 000 000 000 000 -99 -99 -99 000 000 000 000 -99 -99 000 -99 000 000 000 000 000 000 000 000
000 000 000 000 000 000 000 000 -99 -99 -99 000 -99 -99 -99 000 000 000 000 -99 -99 -99 -99 000 000 000 000 000 000 000 -99
000 -99 000 000 000 000 000 000 000 -99 -99 -99 -99 000 -99 000 000 -99 000 -99 -99 -99 -99 000 000 000 000 000 000 000 000
000 -99 000 000 000 000 000 000 000 -99 -99 -99 -99 000 000 000 000 000 000 -99 -99 000 000 000 000 000 000 000 000 000 000
000 000 -99 -99 -99 -99 000 000 000 -99 -99 -99 -99 000 000 000 000 000 000 -99 -99 -99 000 000 000 000 000 000 000 000 000
000 000 000 -99 -99 -99 000 000 000 000 -99 -99 -99 000 000 000 000 000 000 -99 -99 -99 000 -99 -99 000 000 000 000 000 000
000 000 000 000 -99 -99 000 000 000 000 -99 -99 -99 -99 000 000 000 000 000 -99 -99 000 000 000 -99 000 000 000 000 000 000
000 000 000 000 000 -99 -99 000 000 000 000 000 -99 -99 000 -99 000 000 000 -99 -99 000 000 000 -99 000 000 000 000 000 000
000 000 000 000 000 000 -99 000 000 000 000 000 -99 -99 -99 000 000 000 000 000 -99 000 000 -99 -99 -99 000 -99 -99 -99 -99
000 000 000 000 000 000 000 000 000 000 000 -99 -99 -99 -99 000 000 000 000 000 000 000 000 -99 -99 -99 -99 -99 -99 -99 -99
000 000 000 000 000 000 000 000 000 000 000 -99 -99 000 000 000 000 000 000 000 000 000 000 -99 -99 -99 -99 -99 -99 -99 -99
000 000 000 000 000 000 000 000 000 000 -99 -99 000 000 000 000 000 000 000 000 000 000 000 -99 -99 -99 -99 -99 -99 -99 -99
000 000 000 000 000 000 000 000 000 -99 -99 -99 000 000 000 000 000 000 000 000 000 000 000 -99 -99 -99 -99 -99 -99 -99 -99
000 000 000 000 000 000 000 000 000 000 -99 -99 000 000 000 000 000 000 000 000 000 -99 -99 -99 -99 -99 -99 -99 -99 -99 000
000 000 000 000 000 000 000 000 000 000 -99 -99 -99 000 000 000 000 000 000 000 000 000 -99 -99 -99 -99 -99 -99 -99 000 000
000 000 000 000 000 000 000 000 000 000 -99 -99 -99 -99 000 000 000 000 000 000 000 000 -99 -99 -99 -99 -99 -99 -99 000 000
000 000 000 000 000 000 000 000 000 000 -99 -99 -99 000 000 000 000 000 000 000 000 000 -99 -99 -99 -99 -99 -99 -99 000 000
000 000 000 000 000 000 000 000 000 000 000 -99 -99 000 000 000 000 000 000 000 -99 000 -99 -99 -99 -99 -99 -99 -99 -99 -99
000 000 000 000 000 000 000 000 000 000 -99 -99 -99 000 000 000 000 000 000 000 -99 000 -99 000 -99 000 000 -99 -99 -99 -99
000 000 000 000 000 000 000 000 000 -99 -99 -99 -99 000 000 000 000 000 000 -99 -99 -99 000 000 000 000 000 -99 -99 -99 000
000 000 000 000 000 000 000 000 000 -99 -99 -99 -99 000 000 000 000 000 000 -99 -99 000 000 000 000 000 000 000 000 -99 000
000 000 000 000 000 000 000 000 000 000 -99 -99 -99 000 000 000 000 000 000 -99 000 000 000 000 000 000 000 000 000 000 000
000 000 000 000 000 000 000 000 000 000 000 -99 -99 000 000 000 000 000 -99 000 000 000 000 000 000 000 000 000 000 000 000
000 000 000 000 000 000 -99 000 000 000 000 -99 000 000 000 000 000 000 000 000 000 000 000 000 000 000 000 000 000 000 000
000 000 -99 000 000 -99 -99 000 000 000 000 -99 000 000 000 000 000 000 000 000 000 000 000 000 000 000 000 000 000 000 000
000 000 -99 000 000 -99 -99 000 000 000 -99 -99 000 000 000 000 000 000 000 -99 000 000 000 000 000 000 000 000 000 000 000
000 000 000 000 000 -99 -99 -99 -99 -99 -99 -99 -99 000 000 000 000 -99 -99 -99 000 000 000 000 000 000 000 000 000 000 -99
000 000 000 000 000 -99 -99 -99 -99 -99 -99 000 000 000 000 000 000 -99 -99 -99 000 000 000 000 000 000 000 000 000 000 -99
000 000 000 000 000 -99 -99 -99 -99 000 000 000 000 000 000 000 -99 -99 -99 000 000 000 000 000 000 000 000 000 -99 000 -99
000 000 -99 000 -99 -99 000 000 000 000 000 000 000 000 000 -99 000 000 000 000 000 000 000 000 000 000 000 -99 -99 -99 -99
000 000 -99 -99 -99 000 000 000 000 000 000 000 000 000 000 000 000 000 000 000 -99 000 000 000 000 000 000 -99 -99 -99 -99
000 -99 -99 -99 -99 000 000 -99 -99 -99 000 000 000 000 000 000 000 000 000 000 000 000 000 000 000 000 000 000 -99 -99 000
000 000 -99 -99 000 000 -99 -99 -99 -99 -99 -99 000 000 000 000 000 -99 000 000 -99 -99 -99 000 000 000 000 000 -99 -99 -99
000 -99 -99 000 000 -99 -99 -99 -99 -99 -99 000 000 000 000 000 000 000 000 000 -99 -99 -99 000 000 000 000 000 -99 -99 -99
-99 -99 -99 -99 -99 -99 -99 -99 -99 -99 -99 000 -99 003 003 001 -99 000 000 000 -99 000 000 000 000 000 000 -99 -99 -99 -99
-99 -99 -99 -99 -99 -99 -99 -99 000 -99 -99 -99 -99 019 014 -99 -99 000 000 -99 000 000 000 000 000 000 000 000 000 -99 -99
-99 -99 -99 -99 -99 -99 -99 -99 -99 000 -99 -99 016 016 024 -99 -99 000 000 -99 000 000 000 000 000 000 000 000 000 -99 -99
-99 -99 -99 000 -99 -99 -99 -99 000 000 -99 -99 -99 016 -99 -99 000 000 000 -99 000 000 000 -99 000 000 000 000 000 -99 -99
-99 -99 000 000 -99 -99 -99 000 -99 -99 -99 -99 -99 -99 -99 -99 000 000 -99 000 000 000 000 -99 -99 000 000 000 000 -99 -99
-99 -99 000 -99 -99 -99 000 000 -99 -99 -99 -99 -99 -99 -99 -99 -99 000 000 000 000 -99 000 -99 -99 000 -99 -99 -99 -99 -99
-99 -99 -99 -99 -99 -99 000 000 -99 -99 -99 -99 -99 -99 -99 -99 -99 000 000 000 -99 -99 -99 -99 -99 -99 -99 -99 -99 -99 -99
-99 -99 -99 -99 -99 -99 -99 -99 -99 -99 -99 -99 -99 -99 -99 -99 -99 000 000 000 -99 -99 -99 -99 -99 -99 -99 -99 -99 -99 -99
-99 -99 -99 -99 -99 -99 -99 -99 -99 -99 -99 -99 -99 -99 -99 000 -99 000 -99 -99 -99 -99 -99 -99 -99 -99 -99 -99 -99 -99 -99
